clingo version 5.4.0
Reading from stdin
Solving...
UNSATISFIABLE

Models       : 0
Calls        : 1
Time         : 4700.801s (Solving: 3997.54s 1st Model: 0.00s Unsat: 3997.54s)
CPU Time     : 4041.922s
